Log file: C:\Users\user\robust_bilevel_network_games\true_dro\S20_beta0p3_cov95\log_sioux_falls_20260417_1443353.txt
Started: 2026-04-17T14:43:20.353


======================================================================
INSTANCE: sioux_falls (S=20, β=0.3, ε̂=0.67, ε̃=0.67)
======================================================================
============================================================
Sioux-Falls Network Summary
============================================================
Number of nodes: 24
Number of arcs (incl. dummy): 77
Number of regular arcs: 76
Number of interdictable arcs: 66
Source node: s (1)
Sink node: t (24)
Node-incidence matrix N dimensions: (23, 77)

Sparsity Information:
  Arc-arc adjacency: 864 / 5776 pairs (85.0% sparse)
  Node-arc incidence: 148 / 1748 pairs (91.5% sparse)

First 15 arcs:
  Arc 1: ("10", "11") [Interdictable: ✓]
  Arc 2: ("10", "15") [Interdictable: ✓]
  Arc 3: ("10", "16") [Interdictable: ✓]
  Arc 4: ("10", "17") [Interdictable: ✓]
  Arc 5: ("10", "9") [Interdictable: ✓]
  Arc 6: ("11", "10") [Interdictable: ✓]
  Arc 7: ("11", "12") [Interdictable: ✓]
  Arc 8: ("11", "14") [Interdictable: ✓]
  Arc 9: ("11", "4") [Interdictable: ✓]
  Arc 10: ("12", "11") [Interdictable: ✓]
  Arc 11: ("12", "13") [Interdictable: ✓]
  Arc 12: ("12", "3") [Interdictable: ✓]
  Arc 13: ("13", "12") [Interdictable: ✓]
  Arc 14: ("13", "t") [Interdictable: ✗]
  Arc 15: ("14", "11") [Interdictable: ✓]
============================================================
  |A|=76, S=20, γ=2, w=1.9805, λU=2.0
  ε̂=0.67, ε̃=0.67

----------------------------------------
VI-only OMP diagnostic (no Benders cuts)
Set parameter Username
Set parameter LicenseID to value 2742039
Academic license - for non-commercial use only - expires 2026-11-20
Set parameter OutputFlag to value 1
Set parameter OutputFlag to value 1
Gurobi Optimizer version 13.0.0 build v13.0.0rc1 (win64 - Windows 10.0 (19045.2))

CPU model: AMD Ryzen 9 5900X 12-Core Processor, instruction set [SSE2|AVX|AVX2]
Thread count: 12 physical cores, 24 logical processors, using up to 24 threads

Optimize a model with 6112 rows, 3577 columns and 18067 nonzeros (Min)
Model fingerprint: 0x8ba74a64
Model has 1 linear objective coefficients
Variable types: 3501 continuous, 76 integer (76 binary)
Coefficient statistics:
  Matrix range     [2e-02, 1e+00]
  Objective range  [1e+00, 1e+00]
  Bounds range     [1e+00, 1e+04]
  RHS range        [1e+00, 2e+00]
Found heuristic solution: objective 75.8358076
Presolve removed 2271 rows and 553 columns
Presolve time: 0.01s
Presolved: 3841 rows, 3024 columns, 8984 nonzeros
Found heuristic solution: objective 55.7240525
Variable types: 2960 continuous, 64 integer (64 binary)

Root relaxation: objective 3.230065e+00, 1334 iterations, 0.01 seconds (0.03 work units)

    Nodes    |    Current Node    |     Objective Bounds      |     Work
 Expl Unexpl |  Obj  Depth IntInf | Incumbent    BestBd   Gap | It/Node Time

*    0     0               0       3.2300654    3.23007  0.00%     -    0s

Explored 1 nodes (1334 simplex iterations) in 0.04 seconds (0.05 work units)
Thread count was 24 (of 24 available processors)

Solution count 3: 3.23007 55.7241 75.8358 

Optimal solution found (tolerance 1.00e-04)
Best objective 3.230065405688e+00, best bound 3.230065405688e+00, gap 0.0000%

User-callback calls 54, time in user-callback 0.00 sec
  VI-only LB = 3.230065, x = [0, 0, 0, 0, 0, 0, 0, 0, 0, 0, 0, 0, 0, 0, 0, 0, 0, 0, 0, 0, 0, 0, 0, 0, 0, 0, 0, 0, 0, 0, 0, 0, 0, 0, 0, 0, 0, 0, 0, 0, 0, 0, 0, 0, 0, 0, 0, 0, 0, 0, 1, 1, 0, 0, 0, 0, 0, 0, 0, 0, 0, 0, 0, 0, 0, 0, 0, 0, 0, 0, 0, 0, 0, 0, 0, 0]
----------------------------------------

======================================================================
1. True-DRO Benders (bilinear subproblem via Gurobi NonConvex=2)
======================================================================
Set parameter Username
Set parameter LicenseID to value 2742039
Academic license - for non-commercial use only - expires 2026-11-20
Set parameter Username
Set parameter LicenseID to value 2742039
Academic license - for non-commercial use only - expires 2026-11-20
Set parameter DualReductions to value 0
Set parameter NonConvex to value 2
Set parameter LogFile to value "global_miqcp.log"
Set parameter Username
Set parameter LicenseID to value 2742039
Academic license - for non-commercial use only - expires 2026-11-20
Set parameter DualReductions to value 0
Set parameter NonConvex to value 2
Set parameter OptimalityTarget to value 1
Set parameter Username
Set parameter LicenseID to value 2742039
Academic license - for non-commercial use only - expires 2026-11-20
Set parameter Username
Set parameter LicenseID to value 2742039
Academic license - for non-commercial use only - expires 2026-11-20
Set parameter Username
Set parameter LicenseID to value 2742039
Academic license - for non-commercial use only - expires 2026-11-20

=== True-DRO Benders iter 1 ===
  OMP: t₀=3.230065, UB=Inf, gap=NaN, x=[0, 0, 0, 0, 0, 0, 0, 0, 0, 0, 0, 0, 0, 0, 0, 0, 0, 0, 0, 0, 0, 0, 0, 0, 0, 0, 0, 0, 0, 0, 0, 0, 0, 0, 0, 0, 0, 0, 0, 0, 0, 0, 0, 0, 0, 0, 0, 0, 0, 0, 1, 1, 0, 0, 0, 0, 0, 0, 0, 0, 0, 0, 0, 0, 0, 0, 0, 0, 0, 0, 0, 0, 0, 0, 0, 0] (0.046s)
Set parameter TimeLimit to value 30
Set parameter MIPGap to value 0.0001
Set parameter MIPFocus to value 0
Set parameter NonConvex to value 2
Set parameter MIPGap to value 0.0001
Set parameter DualReductions to value 0
Set parameter OptimalityTarget to value 1
Set parameter MIPFocus to value 0
Set parameter TimeLimit to value 30
Gurobi Optimizer version 13.0.0 build v13.0.0rc1 (win64 - Windows 10.0 (19045.2))

CPU model: AMD Ryzen 9 5900X 12-Core Processor, instruction set [SSE2|AVX|AVX2]
Thread count: 12 physical cores, 24 logical processors, using up to 24 threads

Non-default parameters:
TimeLimit  30
OptimalityTarget  1
DualReductions  0
NonConvex  2

Optimize a model with 8778 rows, 17605 columns and 42593 nonzeros (Max)
Model fingerprint: 0x89d96ef6
Model has 3136 linear objective coefficients
Model has 3040 quadratic constraints
Coefficient statistics:
  Matrix range     [3e-01, 3e+01]
  QMatrix range    [1e+00, 1e+00]
  QLMatrix range   [1e+00, 1e+00]
  Objective range  [1e+00, 2e+00]
  Bounds range     [1e+00, 1e+01]
  RHS range        [5e-02, 2e+00]

Continuous model is non-convex -- solving with NL barrier

Presolve removed 3040 rows and 3040 columns
Presolve time: 0.02s
Presolved: 5738 rows, 14565 columns, 27393 nonzeros
Presolved model has 3040 quadratic constraint(s)
Ordering time: 0.01s

NL barrier statistics:
  Hessian NZ  : 3.040e+03
  Jacobian NZ : 4.259e+04
  Factor NZ   : 2.818e+05
  Factor Ops  : 6.918e+06
  Threads     : 1

                           Residuals
Iter     Objective      Primal     Dual      Compl     Step     Time
   0  -2.33434639e+04  1.16e+05  3.27e+03  7.77e+02  0.00e+00     0s
   1  -2.41552504e+04  8.88e+04  2.96e+03  7.13e+02  2.36e-01     0s
   2  -2.53822416e+04  5.57e+04  2.48e+03  6.33e+02  3.72e-01     0s
   3  -2.56713476e+04  4.93e+04  1.27e+03  2.85e+02  1.15e-01     0s
   4  -2.64794228e+04  3.13e+04  7.55e+02  1.61e+02  3.64e-01     0s
   5  -2.65460144e+04  1.70e+04  4.43e+02  9.21e+01  4.56e-01     0s
   6  -2.56329317e+04  1.10e+04  2.09e+02  4.04e+01  3.54e-01     0s
   7  -2.31166361e+04  6.51e+03  6.92e+01  1.26e+01  4.09e-01     0s
   8  -1.62976565e+04  1.87e+03  6.11e+00  1.82e+00  7.12e-01     0s
   9  -1.16920702e+04  4.27e+02  6.33e-01  1.18e+00  7.72e-01     0s
  10  -1.10189911e+04  2.19e+02  3.28e-01  1.10e+00  4.86e-01     0s
  11  -1.06431967e+04  1.14e+02  1.83e-01  1.06e+00  4.82e-01     0s
  12  -1.04772168e+04  6.99e+01  1.20e-01  1.04e+00  3.85e-01     0s
  13  -1.03991833e+04  4.93e+01  6.06e-02  1.01e+00  2.95e-01     0s
  14  -1.02299636e+04  2.13e-06  1.89e-04  1.00e+00  1.00e+00     0s
  15  -1.02271747e+04  4.64e-10  8.86e-07  1.00e+00  1.00e+00     0s
  16  -1.02270630e+04  4.35e-12  1.37e-08  1.00e+00  1.00e+00     0s
  17  -6.47682226e+03  5.13e-06  1.18e-02  4.56e-01  5.58e-01     0s
  18  -3.57980199e+03  2.38e-05  6.05e-02  3.41e-01  6.58e-01     0s
  19  -2.72467548e+03  2.00e-05  2.48e-02  2.46e-01  4.33e-01     0s
  20  -1.93057264e+03  2.58e-05  1.94e-02  1.75e-01  7.04e-01     0s
  21  -1.61303274e+03  2.10e-05  5.45e-03  1.50e-01  1.00e+00     0s
  22  -1.61511443e+03  1.11e-06  1.12e-04  1.50e-01  1.00e+00     0s
  23  -8.63164058e+02  5.61e-05  1.09e-02  8.99e-02  4.76e-01     0s
  24  -7.28420434e+02  5.82e-05  5.39e-02  5.42e-02  1.76e-01     0s
  25  -4.05482478e+02  1.44e-03  9.71e-02  4.05e-02  5.40e-01     0s
  26  -2.40088322e+02  6.62e-03  4.64e-01  3.12e-02  6.53e-01     0s
  27  -1.69161603e+02  1.25e-03  5.52e-02  2.25e-02  1.00e+00     0s
  28  -1.71608363e+02  2.59e-04  1.34e-03  2.25e-02  1.00e+00     0s
  29  -1.71646018e+02  1.22e-06  1.13e-05  2.25e-02  1.00e+00     0s
  30  -9.25945998e+01  1.77e-03  1.72e-01  1.52e-02  4.58e-01     0s
  31  -4.01316990e+01  1.50e-03  5.27e-02  6.58e-03  6.36e-01     0s
  32  -1.69227452e+01  5.02e-04  2.11e-02  3.38e-03  1.00e+00     0s
  33  -1.72581177e+01  5.35e-05  9.39e-04  3.38e-03  1.00e+00     0s
  34  -1.72443391e+01  1.76e-07  4.30e-06  3.38e-03  1.00e+00     0s
  35  -7.99388934e-01  1.35e-03  2.81e-02  1.32e-03  7.65e-01     0s
  36   6.23296257e+00  1.11e-02  1.52e-01  9.50e-04  1.00e+00     0s
  37   6.89863701e+00  6.35e-03  4.75e-02  6.10e-04  4.35e-01     0s
  38   7.33713383e+00  3.18e-03  3.64e-02  3.58e-04  5.02e-01     0s
  39   7.50326821e+00  1.61e-03  1.42e-02  3.51e-04  4.91e-01     0s
  40   7.50164465e+00  6.85e-04  9.11e-04  3.46e-04  5.75e-01     0s
  41   7.50997508e+00  8.95e-08  1.41e-06  3.46e-04  1.00e+00     0s
  42   8.09299148e+00  1.36e-05  5.86e-03  1.77e-04  2.31e-01     0s
  43   8.23621417e+00  1.77e-05  1.42e-02  1.45e-04  6.59e-02     0s
  44   9.71232335e+00  1.18e-04  2.23e-02  8.35e-05  8.69e-01     0s
  45   9.73838257e+00  1.09e-04  1.55e-03  5.31e-05  7.72e-02     0s
  46   9.92340601e+00  3.15e-05  7.50e-03  4.11e-05  7.09e-01     0s
  47   9.96208071e+00  2.03e-05  4.81e-03  2.16e-05  3.58e-01     0s
  48   9.98681316e+00  1.53e-05  1.69e-03  2.02e-05  2.46e-01     0s
  49   1.00080677e+01  1.06e-05  3.58e-03  1.94e-05  3.06e-01     0s
  50   1.00111229e+01  9.88e-06  3.82e-03  1.93e-05  7.07e-02     0s
  51   1.00138898e+01  9.15e-06  4.13e-03  1.92e-05  7.33e-02     0s
  52   1.00455877e+01  3.75e-06  4.73e-03  1.83e-05  1.00e+00     0s
  53   1.00467678e+01  3.21e-06  7.09e-03  1.45e-05  1.36e-01     0s
  54   1.00471107e+01  2.49e-06  7.24e-03  1.45e-05  2.29e-01     0s
  55   1.00484284e+01  6.83e-07  7.31e-05  1.43e-05  7.52e-01     1s
  56   1.00489001e+01  2.17e-08  1.66e-04  1.43e-05  1.00e+00     1s
  57   1.00488908e+01  9.41e-12  8.40e-11  1.43e-05  1.00e+00     1s
  58   1.00488912e+01  1.97e-14  4.38e-13  1.43e-05  1.00e+00     1s
  59   1.01170116e+01  2.03e-06  2.77e-04  5.10e-06  5.48e-01     1s
  60   1.01497343e+01  4.30e-06  1.43e-03  2.28e-06  5.34e-01     1s
  61   1.01781201e+01  1.55e-06  1.14e-03  3.58e-07  1.00e+00     1s
  62   1.01781795e+01  1.69e-09  9.15e-09  1.65e-07  1.00e+00     1s
  63   1.01781795e+01  1.96e-10  2.16e-11  1.65e-07  1.00e+00     1s
  64   1.01781795e+01  1.06e-13  5.63e-14  1.65e-07  1.00e+00     1s
  65   1.01795958e+01  3.29e-09  2.33e-05  5.93e-09  9.13e-01     1s
  66   1.01797316e+01  2.36e-11  1.30e-11  1.00e-09  1.00e+00     1s

NL barrier solved model in 66 iterations and 0.61 seconds (0.81 work units)
First-order optimal solution
Solution objective 1.017973161110e+01

User-callback calls 374, time in user-callback 0.00 sec
  Sub: Z₀=10.179732 [LOCAL], α=[0.000,0.000,0.000,0.000,0.000,0.000,0.000,0.000,0.000,0.000,0.000,0.000,0.000,0.000,0.000,0.000,0.000,0.000,0.000,0.000,0.000,0.000,0.000,0.000,0.000,0.000,0.000,0.000,0.000,0.000,0.000,0.000,0.000,0.000,0.000,0.000,0.000,0.000,0.000,0.000,0.000,0.000,0.000,0.000,0.000,0.000,0.000,0.000,0.000,0.000,1.107,0.874,0.000,0.000,0.000,0.000,0.000,0.000,0.000,0.000,0.000,0.000,0.000,0.000,0.000,0.000,0.000,0.000,0.000,0.000,0.000,0.000,0.000,0.000,0.000,0.000]
  Iter 1: LB=3.230065  UB=Inf  gap=NaN
  Cut: intercept=-590.283908, π_x_range=[-418.2736, 302.0060]
  [ρ-diag] φ̂U=1.00, φ̃U=2.00, λU=2.00
    π_L range=[-136.4509, 92.0060], |π_L|_∞=136.4509
    π_F range=[-268.5526, 194.8994], |π_F|_∞=268.5526
    π_ψ range=[-13.3333, 17.1747], |π_ψ|_∞=17.1747
    ρ̂1: [0.0000, 9.4283], ρ̂3: [0.0000, 5.0000]
    ρ̃1: [0.0000, 6.7972], ρ̃3: [0.0000, 4.9686]
    ρ⁰1: [0.0000, 6.6667], ρ⁰3: [0.0000, 8.5874]
  [φ-diag] φ̂ actual: [-0.0000, 1.0000], φ̂U=1.00
  [φ-diag] φ̃ actual: [-0.0000, 2.0000], φ̃U=2.00
  Mini-Benders[1] (mw): LB=5.121018, Z₀(α*)=14.760917, intercept=23.988308
  Mini-Benders[2] (mw): LB=6.766660, Z₀(α*)=16.516082, intercept=23.718189
  Mini-Benders[3] (mw): LB=7.139828, Z₀(α*)=16.627609, intercept=24.119953
  Mini-Benders[4] (mw): LB=7.206089, Z₀(α*)=19.327016, intercept=26.395017
  Mini-Benders[5] (mw): LB=8.351084, Z₀(α*)=22.953811, intercept=25.929447
Set parameter NonConvex to value 2
Set parameter DualReductions to value 0
Set parameter LogFile to value "global_miqcp.log"
Gurobi Optimizer version 13.0.0 build v13.0.0rc1 (win64 - Windows 10.0 (19045.2))

CPU model: AMD Ryzen 9 5900X 12-Core Processor, instruction set [SSE2|AVX|AVX2]
Thread count: 12 physical cores, 24 logical processors, using up to 24 threads

Non-default parameters:
DualReductions  0
NonConvex  2

Optimize a model with 8778 rows, 17605 columns and 42593 nonzeros (Max)
Model fingerprint: 0xe53be21a
Model has 3136 linear objective coefficients
Model has 3040 quadratic constraints
Coefficient statistics:
  Matrix range     [3e-01, 3e+01]
  QMatrix range    [1e+00, 1e+00]
  QLMatrix range   [1e+00, 1e+00]
  Objective range  [1e+00, 2e+00]
  Bounds range     [3e-02, 2e+00]
  RHS range        [5e-02, 2e+00]
Presolve removed 102 rows and 2016 columns
Presolve time: 0.01s
Presolved: 9740 rows, 15589 columns, 36825 nonzeros
Ordering time: 0.01s

Barrier statistics:
 Free vars  : 440
 AA' NZ     : 3.469e+04
 Factor NZ  : 2.656e+05 (roughly 12 MB of memory)
 Factor Ops : 1.801e+07 (less than 1 second per iteration)
 Threads    : 12

                  Objective                Residual
Iter       Primal          Dual         Primal    Dual     Compl     Time
   0  -1.03911358e+05 -0.00000000e+00  1.16e+04 1.00e+00  1.31e+02     0s
   1  -1.21462593e+05  1.03186374e+03  3.40e+03 5.95e+00  8.01e+01     0s
   2  -1.11992005e+05  1.29240910e+03  8.17e+02 1.39e+00  2.11e+01     0s
   3  -5.75886662e+04  9.20758334e+02  2.76e+01 2.97e-01  4.92e+00     0s
   4  -1.09585393e+04  6.68442292e+02  9.05e-01 9.02e-02  1.02e+00     0s
   5  -2.96434342e+03  3.21842948e+02  2.24e-01 1.45e-02  2.14e-01     0s
   6  -6.14357907e+02  1.61586423e+02  4.97e-02 2.84e-03  4.81e-02     0s
   7  -1.52684363e+02  7.89255578e+01  1.24e-02 1.03e-03  1.58e-02     0s
   8  -1.71785704e+01  6.16250637e+01  2.39e-03 6.97e-04  7.44e-03     0s
   9   1.04152579e+01  2.52219936e+01  4.82e-04 9.62e-05  1.22e-03     0s
  10   1.78909858e+01  1.86512281e+01  3.30e-05 8.93e-07  4.01e-05     0s
  11   1.85229048e+01  1.85240537e+01  4.41e-09 5.49e-10  5.11e-08     0s
  12   1.85238094e+01  1.85238112e+01  2.67e-10 1.03e-12  7.85e-11     0s
  13   1.85238110e+01  1.85238110e+01  4.41e-12 7.11e-15  3.25e-16     0s

Barrier solved model in 13 iterations and 0.07 seconds (0.08 work units)
Optimal objective 1.85238110e+01


User-callback calls 65, time in user-callback 0.00 sec
  α-step: Z₀=18.523811, α=[0.000,0.000,0.000,0.000,0.000,0.000,0.000,0.000,0.000,0.000,0.000,0.000,0.000,0.000,0.000,0.000,0.000,0.000,0.000,0.000,0.000,0.000,0.000,0.000,0.000,0.000,0.000,0.000,0.000,0.000,0.000,0.000,0.000,0.000,0.000,0.000,0.000,0.000,0.000,0.000,0.000,0.000,0.000,0.000,0.000,0.000,0.000,0.000,0.000,0.000,0.428,0.000,0.000,0.696,0.000,0.000,0.000,0.000,0.483,0.000,0.000,0.373,0.000,0.000,0.000,0.000,0.000,0.000,0.000,0.000,0.000,0.000,0.000,0.000,0.000,0.000]
  Alt-Benders[1] (mw): LB=10.179732, Z₀(α*)=6.285871, intercept=12.582243
  Alt-Benders[2] (mw): LB=10.179732, Z₀(α*)=6.285871, intercept=12.582243
  Alt-Benders[3] (mw): LB=10.179732, Z₀(α*)=6.285871, intercept=12.582243
  Alt-Benders[4]: LB stagnated, break
  OMP re-solve: 0.001s

=== True-DRO Benders iter 2 ===
  OMP: t₀=10.179732, UB=Inf, gap=NaN, x=[0, 0, 0, 0, 0, 0, 0, 0, 0, 0, 0, 0, 0, 0, 0, 0, 0, 0, 0, 0, 0, 0, 0, 0, 0, 0, 0, 0, 0, 0, 0, 0, 0, 0, 0, 0, 0, 0, 0, 0, 0, 0, 0, 0, 0, 0, 0, 0, 0, 0, 1, 1, 0, 0, 0, 0, 0, 0, 0, 0, 0, 0, 0, 0, 0, 0, 0, 0, 0, 0, 0, 0, 0, 0, 0, 0] (0.001s)
Set parameter TimeLimit to value 30
Set parameter MIPGap to value 0.0001
Set parameter MIPFocus to value 0
Gurobi Optimizer version 13.0.0 build v13.0.0rc1 (win64 - Windows 10.0 (19045.2))

CPU model: AMD Ryzen 9 5900X 12-Core Processor, instruction set [SSE2|AVX|AVX2]
Thread count: 12 physical cores, 24 logical processors, using up to 24 threads

Non-default parameters:
TimeLimit  30
OptimalityTarget  1
DualReductions  0
NonConvex  2

Optimize a model with 8778 rows, 17605 columns and 42593 nonzeros (Max)
Model fingerprint: 0x89d96ef6
Model has 3136 linear objective coefficients
Model has 3040 quadratic constraints
Variable types: 17605 continuous, 0 integer (0 binary)
Coefficient statistics:
  Matrix range     [3e-01, 3e+01]
  QMatrix range    [1e+00, 1e+00]
  QLMatrix range   [1e+00, 1e+00]
  Objective range  [1e+00, 2e+00]
  Bounds range     [1e+00, 1e+01]
  RHS range        [5e-02, 2e+00]
Presolve removed 3040 rows and 3040 columns
Presolve time: 0.02s
Presolved: 5738 rows, 14565 columns, 27393 nonzeros
Presolved model has 3040 quadratic constraint(s)

Solving NLP to local optimality

Ordering time: 0.01s

NL barrier statistics:
  Hessian NZ  : 3.040e+03
  Jacobian NZ : 4.259e+04
  Factor NZ   : 2.818e+05
  Factor Ops  : 6.918e+06
  Threads     : 1

                           Residuals
Iter     Objective      Primal     Dual      Compl     Step     Time
   0  -2.33434639e+04  1.16e+05  3.27e+03  7.77e+02  0.00e+00     0s
   1  -2.41552504e+04  8.88e+04  2.96e+03  7.13e+02  2.36e-01     0s
   2  -2.53822416e+04  5.57e+04  2.48e+03  6.33e+02  3.72e-01     0s
   3  -2.56713476e+04  4.93e+04  1.27e+03  2.85e+02  1.15e-01     0s
   4  -2.64794228e+04  3.13e+04  7.55e+02  1.61e+02  3.64e-01     0s
   5  -2.65460144e+04  1.70e+04  4.43e+02  9.21e+01  4.56e-01     0s
   6  -2.56329317e+04  1.10e+04  2.09e+02  4.04e+01  3.54e-01     0s
   7  -2.31166361e+04  6.51e+03  6.92e+01  1.26e+01  4.09e-01     0s
   8  -1.62976565e+04  1.87e+03  6.11e+00  1.82e+00  7.12e-01     0s
   9  -1.16920702e+04  4.27e+02  6.33e-01  1.18e+00  7.72e-01     0s
  10  -1.10189911e+04  2.19e+02  3.28e-01  1.10e+00  4.86e-01     0s
  11  -1.06431967e+04  1.14e+02  1.83e-01  1.06e+00  4.82e-01     0s
  12  -1.04772168e+04  6.99e+01  1.20e-01  1.04e+00  3.85e-01     0s
  13  -1.03991833e+04  4.93e+01  6.06e-02  1.01e+00  2.95e-01     0s
  14  -1.02299636e+04  2.13e-06  1.89e-04  1.00e+00  1.00e+00     0s
  15  -1.02271747e+04  4.64e-10  8.86e-07  1.00e+00  1.00e+00     0s
  16  -1.02270630e+04  4.35e-12  1.37e-08  1.00e+00  1.00e+00     0s
  17  -6.47682226e+03  5.13e-06  1.18e-02  4.56e-01  5.58e-01     0s
  18  -3.57980199e+03  2.38e-05  6.05e-02  3.41e-01  6.58e-01     0s
  19  -2.72467548e+03  2.00e-05  2.48e-02  2.46e-01  4.33e-01     0s
  20  -1.93057264e+03  2.58e-05  1.94e-02  1.75e-01  7.04e-01     0s
  21  -1.61303274e+03  2.10e-05  5.45e-03  1.50e-01  1.00e+00     0s
  22  -1.61511443e+03  1.11e-06  1.12e-04  1.50e-01  1.00e+00     0s
  23  -8.63164058e+02  5.61e-05  1.09e-02  8.99e-02  4.76e-01     0s
  24  -7.28420434e+02  5.82e-05  5.39e-02  5.42e-02  1.76e-01     0s
  25  -4.05482478e+02  1.44e-03  9.71e-02  4.05e-02  5.40e-01     0s
  26  -2.40088322e+02  6.62e-03  4.64e-01  3.12e-02  6.53e-01     0s
  27  -1.69161603e+02  1.25e-03  5.52e-02  2.25e-02  1.00e+00     0s
  28  -1.71608363e+02  2.59e-04  1.34e-03  2.25e-02  1.00e+00     0s
  29  -1.71646018e+02  1.22e-06  1.13e-05  2.25e-02  1.00e+00     0s
  30  -9.25945998e+01  1.77e-03  1.72e-01  1.52e-02  4.58e-01     0s
  31  -4.01316990e+01  1.50e-03  5.27e-02  6.58e-03  6.36e-01     0s
  32  -1.69227452e+01  5.02e-04  2.11e-02  3.38e-03  1.00e+00     0s
  33  -1.72581177e+01  5.35e-05  9.39e-04  3.38e-03  1.00e+00     0s
  34  -1.72443391e+01  1.76e-07  4.30e-06  3.38e-03  1.00e+00     0s
  35  -7.99388934e-01  1.35e-03  2.81e-02  1.32e-03  7.65e-01     0s
  36   6.23296257e+00  1.11e-02  1.52e-01  9.50e-04  1.00e+00     0s
  37   6.89863701e+00  6.35e-03  4.75e-02  6.10e-04  4.35e-01     0s
  38   7.33713383e+00  3.18e-03  3.64e-02  3.58e-04  5.02e-01     0s
  39   7.50326821e+00  1.61e-03  1.42e-02  3.51e-04  4.91e-01     0s
  40   7.50164465e+00  6.85e-04  9.11e-04  3.46e-04  5.75e-01     0s
  41   7.50997508e+00  8.95e-08  1.41e-06  3.46e-04  1.00e+00     0s
  42   8.09299148e+00  1.36e-05  5.86e-03  1.77e-04  2.31e-01     0s
  43   8.23621417e+00  1.77e-05  1.42e-02  1.45e-04  6.59e-02     0s
  44   9.71232335e+00  1.18e-04  2.23e-02  8.35e-05  8.69e-01     0s
  45   9.73838257e+00  1.09e-04  1.55e-03  5.31e-05  7.72e-02     0s
  46   9.92340601e+00  3.15e-05  7.50e-03  4.11e-05  7.09e-01     0s
  47   9.96208071e+00  2.03e-05  4.81e-03  2.16e-05  3.58e-01     0s
  48   9.98681316e+00  1.53e-05  1.69e-03  2.02e-05  2.46e-01     0s
  49   1.00080677e+01  1.06e-05  3.58e-03  1.94e-05  3.06e-01     0s
  50   1.00111229e+01  9.88e-06  3.82e-03  1.93e-05  7.07e-02     0s
  51   1.00138898e+01  9.15e-06  4.13e-03  1.92e-05  7.33e-02     0s
  52   1.00455877e+01  3.75e-06  4.73e-03  1.83e-05  1.00e+00     0s
  53   1.00467678e+01  3.21e-06  7.09e-03  1.45e-05  1.36e-01     0s
  54   1.00471107e+01  2.49e-06  7.24e-03  1.45e-05  2.29e-01     0s
  55   1.00484284e+01  6.83e-07  7.31e-05  1.43e-05  7.52e-01     1s
  56   1.00489001e+01  2.17e-08  1.66e-04  1.43e-05  1.00e+00     1s
  57   1.00488908e+01  9.41e-12  8.40e-11  1.43e-05  1.00e+00     1s
  58   1.00488912e+01  1.97e-14  4.38e-13  1.43e-05  1.00e+00     1s
  59   1.01170116e+01  2.03e-06  2.77e-04  5.10e-06  5.48e-01     1s
  60   1.01497343e+01  4.30e-06  1.43e-03  2.28e-06  5.34e-01     1s
  61   1.01781201e+01  1.55e-06  1.14e-03  3.58e-07  1.00e+00     1s
  62   1.01781795e+01  1.69e-09  9.15e-09  1.65e-07  1.00e+00     1s
  63   1.01781795e+01  1.96e-10  2.16e-11  1.65e-07  1.00e+00     1s
  64   1.01781795e+01  1.06e-13  5.63e-14  1.65e-07  1.00e+00     1s
  65   1.01795958e+01  3.29e-09  2.33e-05  5.93e-09  9.13e-01     1s
  66   1.01797316e+01  2.36e-11  1.30e-11  1.00e-09  1.00e+00     1s

NL barrier solved model in 66 iterations and 0.60 seconds (0.80 work units)
First-order optimal solution
Solution objective 1.017973161110e+01

User-callback calls 377, time in user-callback 0.00 sec
  Sub: Z₀=10.179732 [LOCAL], α=[0.000,0.000,0.000,0.000,0.000,0.000,0.000,0.000,0.000,0.000,0.000,0.000,0.000,0.000,0.000,0.000,0.000,0.000,0.000,0.000,0.000,0.000,0.000,0.000,0.000,0.000,0.000,0.000,0.000,0.000,0.000,0.000,0.000,0.000,0.000,0.000,0.000,0.000,0.000,0.000,0.000,0.000,0.000,0.000,0.000,0.000,0.000,0.000,0.000,0.000,1.107,0.874,0.000,0.000,0.000,0.000,0.000,0.000,0.000,0.000,0.000,0.000,0.000,0.000,0.000,0.000,0.000,0.000,0.000,0.000,0.000,0.000,0.000,0.000,0.000,0.000]
  Iter 2: LB=10.179732  UB=Inf  gap=NaN
  Cut: intercept=-590.283908, π_x_range=[-418.2736, 302.0060]
  [ρ-diag] φ̂U=1.00, φ̃U=2.00, λU=2.00
    π_L range=[-136.4509, 92.0060], |π_L|_∞=136.4509
    π_F range=[-268.5526, 194.8994], |π_F|_∞=268.5526
    π_ψ range=[-13.3333, 17.1747], |π_ψ|_∞=17.1747
    ρ̂1: [0.0000, 9.4283], ρ̂3: [0.0000, 5.0000]
    ρ̃1: [0.0000, 6.7972], ρ̃3: [0.0000, 4.9686]
    ρ⁰1: [0.0000, 6.6667], ρ⁰3: [0.0000, 8.5874]
  [φ-diag] φ̂ actual: [0.0000, 1.0000], φ̂U=1.00
  [φ-diag] φ̃ actual: [-0.0000, 0.0000], φ̃U=2.00
  Mini-Benders[1] (mw): LB=10.179732, Z₀(α*)=10.179741, intercept=23.768441
  Mini-Benders[2] (mw): LB=10.179739, Z₀(α*)=10.179741, intercept=23.768441
  Mini-Benders[3] (mw): LB=10.179739, Z₀(α*)=10.179741, intercept=23.768441
  Mini-Benders[4] (mw): LB=10.179739, Z₀(α*)=10.179741, intercept=23.768441
  Mini-Benders[5]: LB stagnated, break
Gurobi Optimizer version 13.0.0 build v13.0.0rc1 (win64 - Windows 10.0 (19045.2))

CPU model: AMD Ryzen 9 5900X 12-Core Processor, instruction set [SSE2|AVX|AVX2]
Thread count: 12 physical cores, 24 logical processors, using up to 24 threads

Non-default parameters:
DualReductions  0
NonConvex  2

Optimize a model with 8778 rows, 17605 columns and 42593 nonzeros (Max)
Model fingerprint: 0x83209d6c
Model has 3136 linear objective coefficients
Model has 3040 quadratic constraints
Coefficient statistics:
  Matrix range     [3e-01, 3e+01]
  QMatrix range    [1e+00, 1e+00]
  QLMatrix range   [1e+00, 1e+00]
  Objective range  [1e+00, 2e+00]
  Bounds range     [3e-02, 2e+00]
  RHS range        [5e-02, 2e+00]
Presolve removed 102 rows and 2016 columns
Presolve time: 0.01s
Presolved: 9740 rows, 15589 columns, 36825 nonzeros
Ordering time: 0.01s

Barrier statistics:
 Free vars  : 440
 AA' NZ     : 3.469e+04
 Factor NZ  : 2.656e+05 (roughly 12 MB of memory)
 Factor Ops : 1.801e+07 (less than 1 second per iteration)
 Threads    : 12

                  Objective                Residual
Iter       Primal          Dual         Primal    Dual     Compl     Time
   0  -1.03893985e+05 -0.00000000e+00  1.16e+04 1.00e+00  1.31e+02     0s
   1  -1.21426830e+05  1.04310081e+03  3.40e+03 5.94e+00  8.00e+01     0s
   2  -1.11906245e+05  1.30410035e+03  8.17e+02 1.41e+00  2.13e+01     0s
   3  -5.27503050e+04  9.29715710e+02  2.36e+01 3.00e-01  4.70e+00     0s
   4  -9.34097362e+03  6.47950952e+02  1.99e+00 8.43e-02  9.20e-01     0s
   5  -2.58301952e+03  3.31656716e+02  5.11e-01 1.44e-02  1.99e-01     0s
   6  -5.79071751e+02  1.51391708e+02  1.19e-01 2.39e-03  4.40e-02     0s
   7  -1.82812856e+02  9.07445250e+01  3.66e-02 1.25e-03  1.89e-02     0s
   8  -4.55603354e+01  3.69186298e+01  9.54e-03 3.20e-04  5.53e-03     0s
   9  -9.41798691e-01  1.58019598e+01  1.84e-03 5.75e-05  1.10e-03     0s
  10   9.61387973e+00  1.03458914e+01  6.19e-05 7.70e-07  3.92e-05     0s
  11   1.01790431e+01  1.01799800e+01  8.48e-09 1.63e-09  4.20e-08     0s
  12   1.01797398e+01  1.01797413e+01  2.65e-10 5.25e-12  6.13e-11     0s
  13   1.01797411e+01  1.01797411e+01  2.77e-12 7.13e-15  2.71e-16     0s

Barrier solved model in 13 iterations and 0.07 seconds (0.08 work units)
Optimal objective 1.01797411e+01


User-callback calls 60, time in user-callback 0.00 sec
  α-step: Z₀=10.179741, α=[0.000,0.000,0.000,0.000,0.000,0.000,0.000,0.000,0.000,0.000,0.000,0.000,0.000,0.000,0.000,0.000,0.000,0.000,0.000,0.000,0.000,0.000,0.000,0.000,0.000,0.000,0.000,0.000,0.000,0.000,0.000,0.000,0.000,0.000,0.000,0.000,0.000,0.000,0.000,0.000,0.000,0.000,0.000,0.000,0.000,0.000,0.000,0.000,0.000,0.000,1.148,0.833,0.000,0.000,0.000,0.000,0.000,0.000,0.000,0.000,0.000,0.000,0.000,0.000,0.000,0.000,0.000,0.000,0.000,0.000,0.000,0.000,0.000,0.000,0.000,0.000]
  Alt-Benders[1] (mw): LB=10.179739, Z₀(α*)=10.179741, intercept=23.768444
  Alt-Benders[2] (mw): LB=10.179739, Z₀(α*)=10.179741, intercept=23.768444
  Alt-Benders[3] (mw): LB=10.179739, Z₀(α*)=10.179741, intercept=23.768444
  Alt-Benders[4]: LB stagnated, break
  OMP re-solve: 0.001s

=== True-DRO Benders iter 3 ===
  OMP: t₀=10.179739, UB=Inf, gap=NaN, x=[0, 0, 0, 0, 0, 0, 0, 0, 0, 0, 0, 0, 0, 0, 0, 0, 0, 0, 0, 0, 0, 0, 0, 0, 0, 0, 0, 0, 0, 0, 0, 0, 0, 0, 0, 0, 0, 0, 0, 0, 0, 0, 0, 0, 0, 0, 0, 0, 0, 0, 1, 1, 0, 0, 0, 0, 0, 0, 0, 0, 0, 0, 0, 0, 0, 0, 0, 0, 0, 0, 0, 0, 0, 0, 0, 0] (0.001s)
Set parameter TimeLimit to value 30
Set parameter MIPGap to value 0.0001
Set parameter MIPFocus to value 0
Gurobi Optimizer version 13.0.0 build v13.0.0rc1 (win64 - Windows 10.0 (19045.2))

CPU model: AMD Ryzen 9 5900X 12-Core Processor, instruction set [SSE2|AVX|AVX2]
Thread count: 12 physical cores, 24 logical processors, using up to 24 threads

Non-default parameters:
TimeLimit  30
DualReductions  0
NonConvex  2

Optimize a model with 8778 rows, 17605 columns and 42593 nonzeros (Max)
Model fingerprint: 0xef454508
Model has 3136 linear objective coefficients
Model has 3040 quadratic constraints
Coefficient statistics:
  Matrix range     [3e-01, 3e+01]
  QMatrix range    [1e+00, 1e+00]
  QLMatrix range   [1e+00, 1e+00]
  Objective range  [1e+00, 2e+00]
  Bounds range     [1e+00, 2e+00]
  RHS range        [5e-02, 2e+00]

Continuous model is non-convex -- solving as a MIP

Presolve time: 0.02s
Presolved: 20938 rows, 17606 columns, 66913 nonzeros
Presolved model has 3040 bilinear constraint(s)
Variable types: 17606 continuous, 0 integer (0 binary)
Found heuristic solution: objective 10.1797329

Root relaxation: objective 1.234835e+01, 6168 iterations, 0.24 seconds (0.63 work units)

    Nodes    |    Current Node    |     Objective Bounds      |     Work
 Expl Unexpl |  Obj  Depth IntInf | Incumbent    BestBd   Gap | It/Node Time

     0     0   12.34835    0   70   10.17973   12.34835  21.3%     -    0s
     0     0          -    0        10.17973   10.17974  0.00%     -    0s

Cutting planes:
  RLT: 35

Explored 1 nodes (7212 simplex iterations) in 0.82 seconds (1.32 work units)
Thread count was 24 (of 24 available processors)

Solution count 1: 10.1797 

Optimal solution found (tolerance 1.00e-04)
Best objective 1.017973292278e+01, best bound 1.017974107667e+01, gap 0.0001%

User-callback calls 133, time in user-callback 0.00 sec
  Sub: Z₀=10.179733, α=[0.000,0.000,0.000,0.000,0.000,0.000,0.000,0.000,0.000,0.000,0.000,0.000,0.000,0.000,0.000,0.000,0.000,0.000,0.000,0.000,0.000,0.000,0.000,0.000,0.000,0.000,0.000,0.000,0.000,0.000,0.000,0.000,0.000,0.000,0.000,0.000,0.000,0.000,0.000,0.000,0.000,0.000,0.000,0.000,0.000,0.000,0.000,0.000,0.000,0.000,0.994,0.986,0.000,0.000,0.000,0.000,0.000,0.000,0.000,0.000,0.000,0.000,0.000,0.000,0.000,0.000,0.000,0.000,0.000,0.000,0.000,0.000,0.000,0.000,0.000,0.000]
  Iter 3: LB=10.179739  UB=10.179733  gap=5.97e-07
True-DRO Benders converged at iter 3 (gap=5.97e-07)
  Wall time: 11.01 sec
  OMP  time: mean=0.211s, median=0.273s, max=0.313s
  Sub  time (exact): mean=0.857s, median=0.857s, q90=0.857s, max=0.857s (n=1/3)

----------------------------------------
True-DRO: status=Optimal, Z₀=10.179733, iters=3, time=11.01s
  LB=10.179739, UB=10.179733, gap=5.97e-07
  x* = [0, 0, 0, 0, 0, 0, 0, 0, 0, 0, 0, 0, 0, 0, 0, 0, 0, 0, 0, 0, 0, 0, 0, 0, 0, 0, 0, 0, 0, 0, 0, 0, 0, 0, 0, 0, 0, 0, 0, 0, 0, 0, 0, 0, 0, 0, 0, 0, 0, 0, 1, 1, 0, 0, 0, 0, 0, 0, 0, 0, 0, 0, 0, 0, 0, 0, 0, 0, 0, 0, 0, 0, 0, 0, 0, 0]
  α* = [0.000, 0.000, 0.000, 0.000, 0.000, 0.000, 0.000, 0.000, 0.000, 0.000, 0.000, 0.000, 0.000, 0.000, 0.000, 0.000, 0.000, 0.000, 0.000, 0.000, 0.000, 0.000, 0.000, 0.000, 0.000, 0.000, 0.000, 0.000, 0.000, 0.000, 0.000, 0.000, 0.000, 0.000, 0.000, 0.000, 0.000, 0.000, 0.000, 0.000, 0.000, 0.000, 0.000, 0.000, 0.000, 0.000, 0.000, 0.000, 0.000, 0.000, 0.994, 0.986, 0.000, 0.000, 0.000, 0.000, 0.000, 0.000, 0.000, 0.000, 0.000, 0.000, 0.000, 0.000, 0.000, 0.000, 0.000, 0.000, 0.000, 0.000, 0.000, 0.000, 0.000, 0.000, 0.000, 0.000]
  Profile saved → C:\Users\user\robust_bilevel_network_games\true_dro\profiles.jls (39 entries)
============================================================
Primal Recovery: x* → α* → (h*, λ*, ψ⁰*)
============================================================
  x* = [0, 0, 0, 0, 0, 0, 0, 0, 0, 0, 0, 0, 0, 0, 0, 0, 0, 0, 0, 0, 0, 0, 0, 0, 0, 0, 0, 0, 0, 0, 0, 0, 0, 0, 0, 0, 0, 0, 0, 0, 0, 0, 0, 0, 0, 0, 0, 0, 0, 0, 1, 1, 0, 0, 0, 0, 0, 0, 0, 0, 0, 0, 0, 0, 0, 0, 0, 0, 0, 0, 0, 0, 0, 0, 0, 0]
  α* = [0.0000, 0.0000, 0.0000, 0.0000, 0.0000, 0.0000, 0.0000, 0.0000, 0.0000, 0.0000, 0.0000, 0.0000, 0.0000, 0.0000, 0.0000, 0.0000, 0.0000, 0.0000, 0.0000, 0.0000, 0.0000, 0.0000, 0.0000, 0.0000, 0.0000, 0.0000, 0.0000, 0.0000, 0.0000, 0.0000, 0.0000, 0.0000, 0.0000, 0.0000, 0.0000, 0.0000, 0.0000, 0.0000, 0.0000, 0.0000, 0.0000, 0.0000, 0.0000, 0.0000, 0.0000, 0.0000, 0.0000, 0.0000, 0.0000, 0.0000, 0.9943, 0.9862, 0.0000, 0.0000, 0.0000, 0.0000, 0.0000, 0.0000, 0.0000, 0.0000, 0.0000, 0.0000, 0.0000, 0.0000, 0.0000, 0.0000, 0.0000, 0.0000, 0.0000, 0.0000, 0.0000, 0.0000, 0.0000, 0.0000, 0.0000, 0.0000]

  Piece-F obj = 0.000000
  λ*   = -0.000000
  Σh*  = 0.000000  (budget: λw = -0.000000)

  h* (nonzero arcs):
  ψ⁰* (nonzero arcs):

  Per-scenario sink flow ỹ_ts:
    s=1: ỹ_ts=-0.000000
    s=2: ỹ_ts=-0.000000
    s=3: ỹ_ts=-0.000000
    s=4: ỹ_ts=-0.000000
    s=5: ỹ_ts=-0.000000
    s=6: ỹ_ts=-0.000000
    s=7: ỹ_ts=-0.000000
    s=8: ỹ_ts=-0.000000
    s=9: ỹ_ts=-0.000000
    s=10: ỹ_ts=-0.000000
    s=11: ỹ_ts=-0.000000
    s=12: ỹ_ts=-0.000000
    s=13: ỹ_ts=-0.000000
    s=14: ỹ_ts=-0.000000
    s=15: ỹ_ts=-0.000000
    s=16: ỹ_ts=-0.000000
    s=17: ỹ_ts=-0.000000
    s=18: ỹ_ts=-0.000000
    s=19: ỹ_ts=-0.000000
    s=20: ỹ_ts=-0.000000

  Z₀(Benders) = 10.179733
  Piece-F(recovered) = 0.000000

Finished: 2026-04-17T14:43:31.703
